<?xml version = "1.0" standalone="yes"?>
<!-- This file has been generated by DOcplex version 2.23.222  -->
<CPLEXSolution version="1.0">
 <header
   problemName="CVRP"
   objectiveValue="16043.3"
  />
 <variables>
  <variable name="x_0_2" index="1" value="1.00000"/>
  <variable name="x_0_4" index="3" value="1.00000"/>
  <variable name="x_0_5" index="4" value="1.00000"/>
  <variable name="x_0_6" index="5" value="1.00000"/>
  <variable name="x_0_7" index="6" value="1.00000"/>
  <variable name="x_0_8" index="7" value="1.00000"/>
  <variable name="x_0_11" index="10" value="1.00000"/>
  <variable name="x_0_12" index="11" value="1.00000"/>
  <variable name="x_0_13" index="12" value="1.00000"/>
  <variable name="x_0_15" index="14" value="1.00000"/>
  <variable name="x_0_16" index="15" value="1.00000"/>
  <variable name="x_0_17" index="16" value="1.00000"/>
  <variable name="x_0_18" index="17" value="1.00000"/>
  <variable name="x_0_19" index="18" value="1.00000"/>
  <variable name="x_0_21" index="20" value="1.00000"/>
  <variable name="x_1_0" index="26" value="1.00000"/>
  <variable name="x_2_20" index="71" value="1.00000"/>
  <variable name="x_3_25" index="102" value="1.00000"/>
  <variable name="x_4_10" index="113" value="1.00000"/>
  <variable name="x_5_9" index="138" value="1.00000"/>
  <variable name="x_6_3" index="159" value="1.00000"/>
  <variable name="x_7_0" index="182" value="1.00000"/>
  <variable name="x_8_14" index="221" value="1.00000"/>
  <variable name="x_9_0" index="234" value="1.00000"/>
  <variable name="x_10_0" index="260" value="1.00000"/>
  <variable name="x_11_0" index="286" value="1.00000"/>
  <variable name="x_12_22" index="333" value="1.00000"/>
  <variable name="x_13_0" index="338" value="1.00000"/>
  <variable name="x_14_0" index="364" value="1.00000"/>
  <variable name="x_15_0" index="390" value="1.00000"/>
  <variable name="x_16_0" index="416" value="1.00000"/>
  <variable name="x_17_23" index="464" value="1.00000"/>
  <variable name="x_18_26" index="493" value="1.00000"/>
  <variable name="x_19_0" index="494" value="1.00000"/>
  <variable name="x_20_0" index="520" value="1.00000"/>
  <variable name="x_21_24" index="569" value="1.00000"/>
  <variable name="x_22_0" index="572" value="1.00000"/>
  <variable name="x_23_0" index="598" value="1.00000"/>
  <variable name="x_24_0" index="624" value="1.00000"/>
  <variable name="x_25_0" index="650" value="1.00000"/>
  <variable name="x_26_1" index="677" value="1.00000"/>
  <variable name="u_1" index="702" value="65.00000"/>
  <variable name="u_2" index="703" value="43.00000"/>
  <variable name="u_3" index="704" value="63.00000"/>
  <variable name="u_4" index="705" value="42.00000"/>
  <variable name="u_5" index="706" value="24.00000"/>
  <variable name="u_6" index="707" value="22.00000"/>
  <variable name="u_7" index="708" value="48.00000"/>
  <variable name="u_8" index="709" value="18.00000"/>
  <variable name="u_9" index="710" value="65.00000"/>
  <variable name="u_10" index="711" value="56.00000"/>
  <variable name="u_11" index="712" value="65.00000"/>
  <variable name="u_12" index="713" value="49.00000"/>
  <variable name="u_13" index="714" value="42.00000"/>
  <variable name="u_14" index="715" value="51.00000"/>
  <variable name="u_15" index="716" value="65.00000"/>
  <variable name="u_16" index="717" value="65.00000"/>
  <variable name="u_17" index="718" value="26.00000"/>
  <variable name="u_18" index="719" value="29.00000"/>
  <variable name="u_19" index="720" value="65.00000"/>
  <variable name="u_20" index="721" value="65.00000"/>
  <variable name="u_21" index="722" value="14.00000"/>
  <variable name="u_22" index="723" value="65.00000"/>
  <variable name="u_23" index="724" value="59.00000"/>
  <variable name="u_24" index="725" value="61.00000"/>
  <variable name="u_25" index="726" value="65.00000"/>
  <variable name="u_26" index="727" value="58.00000"/>
 </variables>
</CPLEXSolution>
